62      4       
12      10      10      13      
0       0       0       0       0       3       2       3       4       
1       9       0       0       0       3       5       8       14      
1       9       0       0       0       3       6       19      37      
2       0       0       7       0       3       29      32      35      
1       9       0       0       0       3       18      21      25      
4       0       0       8       0       3       7       9       12      
2       0       0       0       7       2       54      59      
5       0       0       0       10      3       10      11      21      
6       0       0       0       1       2       23      32      
7       4       0       0       0       3       12      45      50      
9       0       3       0       0       3       13      25      27      
9       0       0       0       8       3       22      23      28      
2       0       9       0       0       2       15      18      
10      10      0       0       0       3       30      36      37      
4       1       0       0       0       3       16      31      54      
1       0       0       0       9       3       17      20      22      
3       0       4       0       0       3       30      38      44      
1       0       0       3       0       3       24      34      53      
8       0       0       3       0       3       29      36      41      
6       0       1       0       0       3       33      38      45      
9       5       0       0       0       3       23      30      32      
3       0       0       0       1       3       42      49      55      
6       0       6       0       0       3       36      39      47      
3       0       0       1       0       3       26      41      50      
6       0       0       1       0       3       34      53      57      
6       0       0       0       5       3       29      40      47      
6       0       0       0       1       3       41      43      50      
8       0       0       4       0       2       35      43      
8       0       2       0       0       3       44      45      61      
8       6       0       0       0       3       34      39      42      
5       0       4       0       0       2       44      59      
5       0       0       0       1       2       40      51      
2       0       0       0       6       2       37      60      
3       0       0       3       0       1       35      
9       8       0       0       0       3       46      48      49      
7       0       0       8       0       2       38      42      
5       0       0       0       4       2       39      46      
1       0       8       0       0       2       43      52      
5       0       5       0       0       2       40      58      
2       0       0       0       4       1       52      
8       0       0       0       2       3       49      55      56      
7       0       0       4       0       2       48      53      
6       0       0       0       6       1       46      
10      0       0       0       9       1       57      
8       4       0       0       0       2       48      57      
10      8       0       0       0       1       56      
10      0       0       0       9       1       51      
1       0       2       0       0       1       52      
1       8       0       0       0       1       58      
2       0       0       0       2       1       51      
6       0       8       0       0       1       54      
1       0       6       0       0       1       59      
4       0       8       0       0       2       56      60      
9       5       0       0       0       1       55      
6       0       0       0       8       1       58      
9       5       0       0       0       1       61      
5       0       0       4       0       1       60      
9       8       0       0       0       1       61      
7       0       3       0       0       1       62      
9       2       0       0       0       1       62      
1       0       0       0       7       1       62      
0       0       0       0       0       0       